\Problem name: 

Minimize
OBJROW:
Subject To
constr(0):  x0 + x3 + x6 + x9 + x12 + x15 + x18 + 0.50000 x21 + 0.50000 x24 + 0.50000 x27
 + 0.50000 x30 + 0.50000 x33 + 0.50000 x36 + 0.50000 x39 = 3.50000
constr(1):  x1 + x4 + x7 + x10 + x13 + x16 + x19 + 0.50000 x22 + 0.50000 x25 + 0.50000 x28
 + 0.50000 x31 + 0.50000 x34 + 0.50000 x37 + 0.50000 x40 = 3.50000
constr(2):  x2 + x5 + x8 + x11 + x14 + x17 + x20 + 0.50000 x23 + 0.50000 x26 + 0.50000 x29
 + 0.50000 x32 + 0.50000 x35 + 0.50000 x38 + 0.50000 x41 = 3.50000
constr(3):  x0 + x3 + x6 + x9 + x12 + x15 + x18 + x21 + x24 + x27
 + x30 + x33 + x36 + x39 + x42 + x45 + x48 + x51 + x54 + x57
 + x60 = 7
constr(4):  x1 + x4 + x7 + x10 + x13 + x16 + x19 + x22 + x25 + x28
 + x31 + x34 + x37 + x40 + x43 + x46 + x49 + x52 + x55 + x58
 + x61 = 7
constr(5):  x2 + x5 + x8 + x11 + x14 + x17 + x20 + x23 + x26 + x29
 + x32 + x35 + x38 + x41 + x44 + x47 + x50 + x53 + x56 + x59
 + x62 = 7
constr(6):  x0 + x1 + x2 <= 1
constr(7):  x3 + x4 + x5 <= 1
constr(8):  x6 + x7 + x8 <= 1
constr(9):  x9 + x10 + x11 <= 1
constr(10):  x12 + x13 + x14 <= 1
constr(11):  x15 + x16 + x17 <= 1
constr(12):  x18 + x19 + x20 <= 1
constr(13):  x21 + x22 + x23 <= 1
constr(14):  x24 + x25 + x26 <= 1
constr(15):  x27 + x28 + x29 <= 1
constr(16):  x30 + x31 + x32 <= 1
constr(17):  x33 + x34 + x35 <= 1
constr(18):  x36 + x37 + x38 <= 1
constr(19):  x39 + x40 + x41 <= 1
constr(20):  x42 + x43 + x44 <= 1
constr(21):  x45 + x46 + x47 <= 1
constr(22):  x48 + x49 + x50 <= 1
constr(23):  x51 + x52 + x53 <= 1
constr(24):  x54 + x55 + x56 <= 1
constr(25):  x57 + x58 + x59 <= 1
constr(26):  x60 + x61 + x62 <= 1
Bounds
 0 <= x0 <= 1
 0 <= x1 <= 1
 0 <= x2 <= 1
 0 <= x3 <= 1
 0 <= x4 <= 1
 0 <= x5 <= 1
 0 <= x6 <= 1
 0 <= x7 <= 1
 0 <= x8 <= 1
 0 <= x9 <= 1
 0 <= x10 <= 1
 0 <= x11 <= 1
 0 <= x12 <= 1
 0 <= x13 <= 1
 0 <= x14 <= 1
 0 <= x15 <= 1
 0 <= x16 <= 1
 0 <= x17 <= 1
 0 <= x18 <= 1
 0 <= x19 <= 1
 0 <= x20 <= 1
 0 <= x21 <= 1
 0 <= x22 <= 1
 0 <= x23 <= 1
 0 <= x24 <= 1
 0 <= x25 <= 1
 0 <= x26 <= 1
 0 <= x27 <= 1
 0 <= x28 <= 1
 0 <= x29 <= 1
 0 <= x30 <= 1
 0 <= x31 <= 1
 0 <= x32 <= 1
 0 <= x33 <= 1
 0 <= x34 <= 1
 0 <= x35 <= 1
 0 <= x36 <= 1
 0 <= x37 <= 1
 0 <= x38 <= 1
 0 <= x39 <= 1
 0 <= x40 <= 1
 0 <= x41 <= 1
 0 <= x42 <= 1
 0 <= x43 <= 1
 0 <= x44 <= 1
 0 <= x45 <= 1
 0 <= x46 <= 1
 0 <= x47 <= 1
 0 <= x48 <= 1
 0 <= x49 <= 1
 0 <= x50 <= 1
 0 <= x51 <= 1
 0 <= x52 <= 1
 0 <= x53 <= 1
 0 <= x54 <= 1
 0 <= x55 <= 1
 0 <= x56 <= 1
 0 <= x57 <= 1
 0 <= x58 <= 1
 0 <= x59 <= 1
 0 <= x60 <= 1
 0 <= x61 <= 1
 0 <= x62 <= 1
Integers
x0 x1 x2 x3 x4 x5 x6 x7 x8 x9 
x10 x11 x12 x13 x14 x15 x16 x17 x18 x19 
x20 x21 x22 x23 x24 x25 x26 x27 x28 x29 
x30 x31 x32 x33 x34 x35 x36 x37 x38 x39 
x40 x41 x42 x43 x44 x45 x46 x47 x48 x49 
x50 x51 x52 x53 x54 x55 x56 x57 x58 x59 
x60 x61 x62 
End
